8142
34, 39, 40, 37, 38, 48, 24, 5, 15, 6, 4, 43, 45, 19, 41, 8, 9, 10, 33, 12, 28, 27, 26, 47, 13, 14, 52, 11, 51, 25, 46, 44, 16, 29, 50, 20, 23, 30, 2, 7, 42, 21, 17, 3, 18, 31, 22, 1, 32, 49, 36, 35
